
%FILE DATA:	Soccer Computational Problem for MiniZinc Models	%
%AUTHOR:	Jack Wall	%
%CONTACT:  	116397063@umail.ucc.ie			%
%LAST UPDATE:	03/09/2020, 15:15:29						%
%DESCRIPTION: 	96 games played with 36 games left				%


n=12; %number of teams

%Games to play
games=[|4,11|10,2|8,2|12,7|11,6|7,12|12,3|7,3|10,4|2,10|12,10|9,6|3,8|8,1|7,4|2,11|3,2|5,9|10,3|6,1|8,11|12,9|9,10|3,1|12,11|8,12|2,6|9,8|2,8|4,6|6,8|6,2|5,8|7,9|7,11|3,12|];

%Initial points
iPoints=[24,9,22,29,27,22,19,14,26,23,31,16];

%POSITION CONSTRAINTS
% [|teamID, operator, position|...]
% operators index:
%  1 for =  operator
%  2 for >  operator
%  3 for >= operator
%  4 for <  operator
%  5 for <= operator
positionConstraints=[|3,3,1|10,2,1|11,4,4|9,5,4|6,5,5|];